p cnf 964 2475
51 -2 -697 0
-51 2 0
-51 697 0
52 -51 -698 0
-52 51 0
-52 698 0
53 -5 -4 0
-53 5 0
-53 4 0
54 -53 -699 0
-54 53 0
-54 699 0
55 -700 -701 0
-55 700 0
-55 701 0
56 -702 -703 0
-56 702 0
-56 703 0
57 -56 -9 0
-57 56 0
-57 9 0
58 -704 -55 0
-58 704 0
-58 55 0
59 -11 -10 0
-59 11 0
-59 10 0
60 -59 -705 0
-60 59 0
-60 705 0
61 -706 -58 0
-61 706 0
-61 58 0
62 -707 -1 0
-62 707 0
-62 1 0
63 -62 -13 0
-63 62 0
-63 13 0
64 -708 -61 0
-64 708 0
-64 61 0
65 -15 -14 0
-65 15 0
-65 14 0
66 -65 -16 0
-66 65 0
-66 16 0
67 -709 -64 0
-67 709 0
-67 64 0
68 -710 -711 0
-68 710 0
-68 711 0
69 -68 -18 0
-69 68 0
-69 18 0
70 -712 -67 0
-70 712 0
-70 67 0
71 -713 -9 0
-71 713 0
-71 9 0
72 -71 -20 0
-72 71 0
-72 20 0
73 -714 -70 0
-73 714 0
-73 70 0
74 -715 -697 0
-74 715 0
-74 697 0
75 -74 -705 0
-75 74 0
-75 705 0
76 -716 -73 0
-76 716 0
-76 73 0
77 -22 -697 0
-77 22 0
-77 697 0
78 -77 -707 0
-78 77 0
-78 707 0
79 -717 -76 0
-79 717 0
-79 76 0
80 -718 -699 0
-80 718 0
-80 699 0
81 -80 -23 0
-81 80 0
-81 23 0
82 -719 -79 0
-82 719 0
-82 79 0
83 -24 -13 0
-83 24 0
-83 13 0
84 -83 -25 0
-84 83 0
-84 25 0
85 -720 -82 0
-85 720 0
-85 82 0
86 -721 -710 0
-86 721 0
-86 710 0
87 -86 -722 0
-87 86 0
-87 722 0
88 -723 -85 0
-88 723 0
-88 85 0
89 -28 -724 0
-89 28 0
-89 724 0
90 -89 -725 0
-90 89 0
-90 725 0
91 -726 -88 0
-91 726 0
-91 88 0
92 -727 -721 0
-92 727 0
-92 721 0
93 -92 -728 0
-93 92 0
-93 728 0
94 -729 -91 0
-94 729 0
-94 91 0
95 -19 -12 0
-95 19 0
-95 12 0
96 -95 -27 0
-96 95 0
-96 27 0
97 -730 -94 0
-97 730 0
-97 94 0
98 -731 -702 0
-98 731 0
-98 702 0
99 -98 -728 0
-99 98 0
-99 728 0
100 -732 -97 0
-100 732 0
-100 97 0
101 -32 -28 0
-101 32 0
-101 28 0
102 -101 -3 0
-102 101 0
-102 3 0
103 -733 -100 0
-103 733 0
-103 100 0
104 -734 -33 0
-104 734 0
-104 33 0
105 -104 -18 0
-105 104 0
-105 18 0
106 -735 -103 0
-106 735 0
-106 103 0
107 -736 -737 0
-107 736 0
-107 737 0
108 -107 -37 0
-108 107 0
-108 37 0
109 -738 -106 0
-109 738 0
-109 106 0
110 -39 -38 0
-110 39 0
-110 38 0
111 -110 -739 0
-111 110 0
-111 739 0
112 -740 -109 0
-112 740 0
-112 109 0
113 -741 -3 0
-113 741 0
-113 3 0
114 -113 -724 0
-114 113 0
-114 724 0
115 -742 -112 0
-115 742 0
-115 112 0
116 -743 -744 0
-116 743 0
-116 744 0
117 -116 -745 0
-117 116 0
-117 745 0
118 -746 -115 0
-118 746 0
-118 115 0
119 -7 -4 0
-119 7 0
-119 4 0
120 -119 -747 0
-120 119 0
-120 747 0
121 -748 -118 0
-121 748 0
-121 118 0
122 -749 -16 0
-122 749 0
-122 16 0
123 -122 -725 0
-123 122 0
-123 725 0
124 -750 -121 0
-124 750 0
-124 121 0
125 -43 -698 0
-125 43 0
-125 698 0
126 -125 -20 0
-126 125 0
-126 20 0
127 -751 -124 0
-127 751 0
-127 124 0
128 -752 -753 0
-128 752 0
-128 753 0
129 -128 -754 0
-129 128 0
-129 754 0
130 -755 -127 0
-130 755 0
-130 127 0
131 -705 -2 0
-131 705 0
-131 2 0
132 -131 -728 0
-132 131 0
-132 728 0
133 -756 -130 0
-133 756 0
-133 130 0
134 -757 -8 0
-134 757 0
-134 8 0
135 -134 -718 0
-135 134 0
-135 718 0
136 -758 -133 0
-136 758 0
-136 133 0
137 -45 -759 0
-137 45 0
-137 759 0
138 -137 -707 0
-138 137 0
-138 707 0
139 -760 -136 0
-139 760 0
-139 136 0
140 -761 -17 0
-140 761 0
-140 17 0
141 -140 -23 0
-141 140 0
-141 23 0
142 -762 -139 0
-142 762 0
-142 139 0
143 -763 -757 0
-143 763 0
-143 757 0
144 -143 -46 0
-144 143 0
-144 46 0
145 -764 -142 0
-145 764 0
-145 142 0
146 -763 -759 0
-146 763 0
-146 759 0
147 -146 -728 0
-147 146 0
-147 728 0
148 -765 -145 0
-148 765 0
-148 145 0
149 -759 -766 0
-149 759 0
-149 766 0
150 -149 -721 0
-150 149 0
-150 721 0
151 -767 -148 0
-151 767 0
-151 148 0
152 -737 -9 0
-152 737 0
-152 9 0
153 -152 -34 0
-153 152 0
-153 34 0
154 -768 -151 0
-154 768 0
-154 151 0
155 -757 -711 0
-155 757 0
-155 711 0
156 -155 -12 0
-156 155 0
-156 12 0
157 -769 -154 0
-157 769 0
-157 154 0
158 -39 -703 0
-158 39 0
-158 703 0
159 -158 -33 0
-159 158 0
-159 33 0
160 -770 -157 0
-160 770 0
-160 157 0
161 -40 -734 0
-161 40 0
-161 734 0
162 -161 -16 0
-162 161 0
-162 16 0
163 -771 -160 0
-163 771 0
-163 160 0
164 -749 -718 0
-164 749 0
-164 718 0
165 -164 -17 0
-165 164 0
-165 17 0
166 -772 -163 0
-166 772 0
-166 163 0
167 -710 -773 0
-167 710 0
-167 773 0
168 -167 -774 0
-168 167 0
-168 774 0
169 -775 -166 0
-169 775 0
-169 166 0
170 -41 -7 0
-170 41 0
-170 7 0
171 -170 -728 0
-171 170 0
-171 728 0
172 -776 -169 0
-172 776 0
-172 169 0
173 -47 -766 0
-173 47 0
-173 766 0
174 -173 -19 0
-174 173 0
-174 19 0
175 -777 -172 0
-175 777 0
-175 172 0
176 -745 -9 0
-176 745 0
-176 9 0
177 -176 -20 0
-177 176 0
-177 20 0
178 -778 -175 0
-178 778 0
-178 175 0
179 -45 -749 0
-179 45 0
-179 749 0
180 -179 -30 0
-180 179 0
-180 30 0
181 -779 -178 0
-181 779 0
-181 178 0
182 -703 -741 0
-182 703 0
-182 741 0
183 -182 -41 0
-183 182 0
-183 41 0
184 -780 -181 0
-184 780 0
-184 181 0
185 -30 -4 0
-185 30 0
-185 4 0
186 -185 -48 0
-186 185 0
-186 48 0
187 -781 -184 0
-187 781 0
-187 184 0
188 -782 -2 0
-188 782 0
-188 2 0
189 -188 -783 0
-189 188 0
-189 783 0
190 -784 -187 0
-190 784 0
-190 187 0
191 -761 -7 0
-191 761 0
-191 7 0
192 -191 -707 0
-192 191 0
-192 707 0
193 -785 -190 0
-193 785 0
-193 190 0
194 -749 -30 0
-194 749 0
-194 30 0
195 -194 -44 0
-195 194 0
-195 44 0
196 -786 -193 0
-196 786 0
-196 193 0
197 -737 -711 0
-197 737 0
-197 711 0
198 -197 -724 0
-198 197 0
-198 724 0
199 -787 -196 0
-199 787 0
-199 196 0
200 -721 -9 0
-200 721 0
-200 9 0
201 -200 -698 0
-201 200 0
-201 698 0
202 -788 -199 0
-202 788 0
-202 199 0
203 -761 -702 0
-203 761 0
-203 702 0
204 -203 -44 0
-204 203 0
-204 44 0
205 -789 -202 0
-205 789 0
-205 202 0
206 -790 -1 0
-206 790 0
-206 1 0
207 -206 -791 0
-207 206 0
-207 791 0
208 -792 -205 0
-208 792 0
-208 205 0
209 -11 -7 0
-209 11 0
-209 7 0
210 -209 -24 0
-210 209 0
-210 24 0
211 -793 -208 0
-211 793 0
-211 208 0
212 -745 -14 0
-212 745 0
-212 14 0
213 -212 -794 0
-213 212 0
-213 794 0
214 -795 -211 0
-214 795 0
-214 211 0
215 -28 -9 0
-215 28 0
-215 9 0
216 -215 -707 0
-216 215 0
-216 707 0
217 -796 -214 0
-217 796 0
-217 214 0
218 -48 -782 0
-218 48 0
-218 782 0
219 -218 -724 0
-219 218 0
-219 724 0
220 -797 -217 0
-220 797 0
-220 217 0
221 -48 -790 0
-221 48 0
-221 790 0
222 -221 -705 0
-222 221 0
-222 705 0
223 -798 -220 0
-223 798 0
-223 220 0
224 -731 -13 0
-224 731 0
-224 13 0
225 -224 -37 0
-225 224 0
-225 37 0
226 -799 -223 0
-226 799 0
-226 223 0
227 -702 -1 0
-227 702 0
-227 1 0
228 -227 -794 0
-228 227 0
-228 794 0
229 -800 -226 0
-229 800 0
-229 226 0
230 -801 -24 0
-230 801 0
-230 24 0
231 -230 -802 0
-231 230 0
-231 802 0
232 -803 -229 0
-232 803 0
-232 229 0
233 -739 -782 0
-233 739 0
-233 782 0
234 -233 -13 0
-234 233 0
-234 13 0
235 -804 -232 0
-235 804 0
-235 232 0
236 -14 -698 0
-236 14 0
-236 698 0
237 -236 -699 0
-237 236 0
-237 699 0
238 -805 -235 0
-238 805 0
-238 235 0
239 -718 -12 0
-239 718 0
-239 12 0
240 -239 -25 0
-240 239 0
-240 25 0
241 -806 -238 0
-241 806 0
-241 238 0
242 -744 -773 0
-242 744 0
-242 773 0
243 -242 -752 0
-243 242 0
-243 752 0
244 -807 -241 0
-244 807 0
-244 241 0
245 -43 -744 0
-245 43 0
-245 744 0
246 -245 -699 0
-246 245 0
-246 699 0
247 -808 -244 0
-247 808 0
-247 244 0
248 -48 -759 0
-248 48 0
-248 759 0
249 -248 -49 0
-249 248 0
-249 49 0
250 -809 -247 0
-250 809 0
-250 247 0
251 -766 -5 0
-251 766 0
-251 5 0
252 -251 -721 0
-252 251 0
-252 721 0
253 -810 -250 0
-253 810 0
-253 250 0
254 -28 -4 0
-254 28 0
-254 4 0
255 -254 -753 0
-255 254 0
-255 753 0
256 -811 -253 0
-256 811 0
-256 253 0
257 -41 -28 0
-257 41 0
-257 28 0
258 -257 -790 0
-258 257 0
-258 790 0
259 -812 -256 0
-259 812 0
-259 256 0
260 -813 -727 0
-260 813 0
-260 727 0
261 -260 -698 0
-261 260 0
-261 698 0
262 -814 -259 0
-262 814 0
-262 259 0
263 -48 -718 0
-263 48 0
-263 718 0
264 -263 -46 0
-264 263 0
-264 46 0
265 -815 -262 0
-265 815 0
-265 262 0
266 -813 -699 0
-266 813 0
-266 699 0
267 -266 -49 0
-267 266 0
-267 49 0
268 -816 -265 0
-268 816 0
-268 265 0
269 -801 -749 0
-269 801 0
-269 749 0
270 -269 -33 0
-270 269 0
-270 33 0
271 -817 -268 0
-271 817 0
-271 268 0
272 -749 -736 0
-272 749 0
-272 736 0
273 -272 -790 0
-273 272 0
-273 790 0
274 -818 -271 0
-274 818 0
-274 271 0
275 -8 -4 0
-275 8 0
-275 4 0
276 -275 -30 0
-276 275 0
-276 30 0
277 -819 -274 0
-277 819 0
-277 274 0
278 -14 -741 0
-278 14 0
-278 741 0
279 -278 -6 0
-279 278 0
-279 6 0
280 -820 -277 0
-280 820 0
-280 277 0
281 -21 -741 0
-281 21 0
-281 741 0
282 -281 -698 0
-282 281 0
-282 698 0
283 -821 -280 0
-283 821 0
-283 280 0
284 -28 -15 0
-284 28 0
-284 15 0
285 -284 -26 0
-285 284 0
-285 26 0
286 -822 -283 0
-286 822 0
-286 283 0
287 -724 -22 0
-287 724 0
-287 22 0
288 -287 -29 0
-288 287 0
-288 29 0
289 -823 -286 0
-289 823 0
-289 286 0
290 -35 -9 0
-290 35 0
-290 9 0
291 -290 -791 0
-291 290 0
-291 791 0
292 -824 -289 0
-292 824 0
-292 289 0
293 -41 -17 0
-293 41 0
-293 17 0
294 -293 -715 0
-294 293 0
-294 715 0
295 -825 -292 0
-295 825 0
-295 292 0
296 -39 -741 0
-296 39 0
-296 741 0
297 -296 -23 0
-297 296 0
-297 23 0
298 -826 -295 0
-298 826 0
-298 295 0
299 -30 -13 0
-299 30 0
-299 13 0
300 -299 -791 0
-300 299 0
-300 791 0
301 -827 -298 0
-301 827 0
-301 298 0
302 -36 -715 0
-302 36 0
-302 715 0
303 -302 -47 0
-303 302 0
-303 47 0
304 -828 -301 0
-304 828 0
-304 301 0
305 -33 -14 0
-305 33 0
-305 14 0
306 -305 -728 0
-306 305 0
-306 728 0
307 -829 -304 0
-307 829 0
-307 304 0
308 -14 -707 0
-308 14 0
-308 707 0
309 -308 -19 0
-309 308 0
-309 19 0
310 -830 -307 0
-310 830 0
-310 307 0
311 -739 -741 0
-311 739 0
-311 741 0
312 -311 -724 0
-312 311 0
-312 724 0
313 -831 -310 0
-313 831 0
-313 310 0
314 -744 -699 0
-314 744 0
-314 699 0
315 -314 -44 0
-315 314 0
-315 44 0
316 -832 -313 0
-316 832 0
-316 313 0
317 -10 -698 0
-317 10 0
-317 698 0
318 -317 -725 0
-318 317 0
-318 725 0
319 -833 -316 0
-319 833 0
-319 316 0
320 -34 -2 0
-320 34 0
-320 2 0
321 -320 -20 0
-321 320 0
-321 20 0
322 -834 -319 0
-322 834 0
-322 319 0
323 -49 -766 0
-323 49 0
-323 766 0
324 -323 -18 0
-324 323 0
-324 18 0
325 -835 -322 0
-325 835 0
-325 322 0
326 -801 -31 0
-326 801 0
-326 31 0
327 -326 -722 0
-327 326 0
-327 722 0
328 -836 -325 0
-328 836 0
-328 325 0
329 -17 -741 0
-329 17 0
-329 741 0
330 -329 -766 0
-330 329 0
-330 766 0
331 -837 -328 0
-331 837 0
-331 328 0
332 -36 -7 0
-332 36 0
-332 7 0
333 -332 -20 0
-333 332 0
-333 20 0
334 -838 -331 0
-334 838 0
-334 331 0
335 -39 -30 0
-335 39 0
-335 30 0
336 -335 -698 0
-336 335 0
-336 698 0
337 -839 -334 0
-337 839 0
-337 334 0
338 -783 -739 0
-338 783 0
-338 739 0
339 -338 -18 0
-339 338 0
-339 18 0
340 -840 -337 0
-340 840 0
-340 337 0
341 -724 -757 0
-341 724 0
-341 757 0
342 -341 -752 0
-342 341 0
-342 752 0
343 -841 -340 0
-343 841 0
-343 340 0
344 -761 -11 0
-344 761 0
-344 11 0
345 -344 -46 0
-345 344 0
-345 46 0
346 -842 -343 0
-346 842 0
-346 343 0
347 -24 -713 0
-347 24 0
-347 713 0
348 -347 -754 0
-348 347 0
-348 754 0
349 -843 -346 0
-349 843 0
-349 346 0
350 -813 -753 0
-350 813 0
-350 753 0
351 -350 -21 0
-351 350 0
-351 21 0
352 -844 -349 0
-352 844 0
-352 349 0
353 -763 -15 0
-353 763 0
-353 15 0
354 -353 -3 0
-354 353 0
-354 3 0
355 -845 -352 0
-355 845 0
-355 352 0
356 -713 -1 0
-356 713 0
-356 1 0
357 -356 -49 0
-357 356 0
-357 49 0
358 -846 -355 0
-358 846 0
-358 355 0
359 -721 -1 0
-359 721 0
-359 1 0
360 -359 -743 0
-360 359 0
-360 743 0
361 -847 -358 0
-361 847 0
-361 358 0
362 -737 -12 0
-362 737 0
-362 12 0
363 -362 -44 0
-363 362 0
-363 44 0
364 -848 -361 0
-364 848 0
-364 361 0
365 -711 -1 0
-365 711 0
-365 1 0
366 -365 -33 0
-366 365 0
-366 33 0
367 -849 -364 0
-367 849 0
-367 364 0
368 -801 -25 0
-368 801 0
-368 25 0
369 -368 -850 0
-369 368 0
-369 850 0
370 -851 -367 0
-370 851 0
-370 367 0
371 -26 -757 0
-371 26 0
-371 757 0
372 -371 -9 0
-372 371 0
-372 9 0
373 -852 -370 0
-373 852 0
-373 370 0
374 -9 -5 0
-374 9 0
-374 5 0
375 -374 -699 0
-375 374 0
-375 699 0
376 -853 -373 0
-376 853 0
-376 373 0
377 -773 -702 0
-377 773 0
-377 702 0
378 -377 -739 0
-378 377 0
-378 739 0
379 -854 -376 0
-379 854 0
-379 376 0
380 -30 -28 0
-380 30 0
-380 28 0
381 -380 -699 0
-381 380 0
-381 699 0
382 -855 -379 0
-382 855 0
-382 379 0
383 -718 -697 0
-383 718 0
-383 697 0
384 -383 -21 0
-384 383 0
-384 21 0
385 -856 -382 0
-385 856 0
-385 382 0
386 -12 -753 0
-386 12 0
-386 753 0
387 -386 -16 0
-387 386 0
-387 16 0
388 -857 -385 0
-388 857 0
-388 385 0
389 -26 -1 0
-389 26 0
-389 1 0
390 -389 -6 0
-390 389 0
-390 6 0
391 -858 -388 0
-391 858 0
-391 388 0
392 -35 -33 0
-392 35 0
-392 33 0
393 -392 -725 0
-393 392 0
-393 725 0
394 -859 -391 0
-394 859 0
-394 391 0
395 -731 -14 0
-395 731 0
-395 14 0
396 -395 -725 0
-396 395 0
-396 725 0
397 -860 -394 0
-397 860 0
-397 394 0
398 -8 -1 0
-398 8 0
-398 1 0
399 -398 -19 0
-399 398 0
-399 19 0
400 -861 -397 0
-400 861 0
-400 397 0
401 -16 -698 0
-401 16 0
-401 698 0
402 -401 -752 0
-402 401 0
-402 752 0
403 -862 -400 0
-403 862 0
-403 400 0
404 -46 -10 0
-404 46 0
-404 10 0
405 -404 -34 0
-405 404 0
-405 34 0
406 -863 -403 0
-406 863 0
-406 403 0
407 -761 -773 0
-407 761 0
-407 773 0
408 -407 -802 0
-408 407 0
-408 802 0
409 -864 -406 0
-409 864 0
-409 406 0
410 -801 -759 0
-410 801 0
-410 759 0
411 -410 -747 0
-411 410 0
-411 747 0
412 -865 -409 0
-412 865 0
-412 409 0
413 -42 -8 0
-413 42 0
-413 8 0
414 -413 -21 0
-414 413 0
-414 21 0
415 -866 -412 0
-415 866 0
-415 412 0
416 -774 -3 0
-416 774 0
-416 3 0
417 -416 -734 0
-417 416 0
-417 734 0
418 -867 -415 0
-418 867 0
-418 415 0
419 -710 -707 0
-419 710 0
-419 707 0
420 -419 -19 0
-420 419 0
-420 19 0
421 -868 -418 0
-421 868 0
-421 418 0
422 -763 -1 0
-422 763 0
-422 1 0
423 -422 -24 0
-423 422 0
-423 24 0
424 -869 -421 0
-424 869 0
-424 421 0
425 -801 -1 0
-425 801 0
-425 1 0
426 -425 -44 0
-426 425 0
-426 44 0
427 -870 -424 0
-427 870 0
-427 424 0
428 -45 -727 0
-428 45 0
-428 727 0
429 -428 -13 0
-429 428 0
-429 13 0
430 -871 -427 0
-430 871 0
-430 427 0
431 -801 -28 0
-431 801 0
-431 28 0
432 -431 -31 0
-432 431 0
-432 31 0
433 -872 -430 0
-433 872 0
-433 430 0
434 -763 -32 0
-434 763 0
-434 32 0
435 -434 -23 0
-435 434 0
-435 23 0
436 -873 -433 0
-436 873 0
-436 433 0
437 -749 -713 0
-437 749 0
-437 713 0
438 -437 -34 0
-438 437 0
-438 34 0
439 -874 -436 0
-439 874 0
-439 436 0
440 -284 -6 0
-440 284 0
-440 6 0
441 -875 -439 0
-441 875 0
-441 439 0
442 -39 -739 0
-442 39 0
-442 739 0
443 -442 -3 0
-443 442 0
-443 3 0
444 -876 -441 0
-444 876 0
-444 441 0
445 -347 -794 0
-445 347 0
-445 794 0
446 -877 -444 0
-446 877 0
-446 444 0
447 -747 -737 0
-447 747 0
-447 737 0
448 -447 -47 0
-448 447 0
-448 47 0
449 -878 -446 0
-449 878 0
-449 446 0
450 -731 -24 0
-450 731 0
-450 24 0
451 -450 -19 0
-451 450 0
-451 19 0
452 -879 -449 0
-452 879 0
-452 449 0
453 -763 -42 0
-453 763 0
-453 42 0
454 -453 -783 0
-454 453 0
-454 783 0
455 -880 -452 0
-455 880 0
-455 452 0
456 -43 -14 0
-456 43 0
-456 14 0
457 -456 -39 0
-457 456 0
-457 39 0
458 -881 -455 0
-458 881 0
-458 455 0
459 -710 -4 0
-459 710 0
-459 4 0
460 -459 -743 0
-460 459 0
-460 743 0
461 -882 -458 0
-461 882 0
-461 458 0
462 -35 -703 0
-462 35 0
-462 703 0
463 -462 -721 0
-463 462 0
-463 721 0
464 -883 -461 0
-464 883 0
-464 461 0
465 -48 -783 0
-465 48 0
-465 783 0
466 -465 -20 0
-466 465 0
-466 20 0
467 -884 -464 0
-467 884 0
-467 464 0
468 -731 -18 0
-468 731 0
-468 18 0
469 -468 -850 0
-469 468 0
-469 850 0
470 -885 -467 0
-470 885 0
-470 467 0
471 -790 -4 0
-471 790 0
-471 4 0
472 -471 -791 0
-472 471 0
-472 791 0
473 -886 -470 0
-473 886 0
-473 470 0
474 -727 -773 0
-474 727 0
-474 773 0
475 -474 -9 0
-475 474 0
-475 9 0
476 -887 -473 0
-476 887 0
-476 473 0
477 -782 -713 0
-477 782 0
-477 713 0
478 -477 -752 0
-478 477 0
-478 752 0
479 -888 -476 0
-479 888 0
-479 476 0
480 -47 -699 0
-480 47 0
-480 699 0
481 -480 -29 0
-481 480 0
-481 29 0
482 -889 -479 0
-482 889 0
-482 479 0
483 -47 -707 0
-483 47 0
-483 707 0
484 -483 -29 0
-484 483 0
-484 29 0
485 -890 -482 0
-485 890 0
-485 482 0
486 -782 -721 0
-486 782 0
-486 721 0
487 -486 -11 0
-487 486 0
-487 11 0
488 -891 -485 0
-488 891 0
-488 485 0
489 -42 -35 0
-489 42 0
-489 35 0
490 -489 -722 0
-490 489 0
-490 722 0
491 -892 -488 0
-491 892 0
-491 488 0
492 -782 -718 0
-492 782 0
-492 718 0
493 -492 -722 0
-493 492 0
-493 722 0
494 -893 -491 0
-494 893 0
-494 491 0
495 -28 -741 0
-495 28 0
-495 741 0
496 -495 -747 0
-496 495 0
-496 747 0
497 -894 -494 0
-497 894 0
-497 494 0
498 -42 -22 0
-498 42 0
-498 22 0
499 -498 -48 0
-499 498 0
-499 48 0
500 -895 -497 0
-500 895 0
-500 497 0
501 -8 -699 0
-501 8 0
-501 699 0
502 -501 -722 0
-502 501 0
-502 722 0
503 -896 -500 0
-503 896 0
-503 500 0
504 -783 -698 0
-504 783 0
-504 698 0
505 -504 -49 0
-505 504 0
-505 49 0
506 -897 -503 0
-506 897 0
-506 503 0
507 -761 -32 0
-507 761 0
-507 32 0
508 -507 -31 0
-508 507 0
-508 31 0
509 -898 -506 0
-509 898 0
-509 506 0
510 -16 -7 0
-510 16 0
-510 7 0
511 -510 -18 0
-511 510 0
-511 18 0
512 -899 -509 0
-512 899 0
-512 509 0
513 -50 -759 0
-513 50 0
-513 759 0
514 -513 -783 0
-514 513 0
-514 783 0
515 -900 -512 0
-515 900 0
-515 512 0
516 -718 -3 0
-516 718 0
-516 3 0
517 -516 -734 0
-517 516 0
-517 734 0
518 -901 -515 0
-518 901 0
-518 515 0
519 -745 -737 0
-519 745 0
-519 737 0
520 -519 -783 0
-520 519 0
-520 783 0
521 -902 -518 0
-521 902 0
-521 518 0
522 -774 -5 0
-522 774 0
-522 5 0
523 -522 -734 0
-523 522 0
-523 734 0
524 -903 -521 0
-524 903 0
-524 521 0
525 -783 -790 0
-525 783 0
-525 790 0
526 -525 -728 0
-526 525 0
-526 728 0
527 -904 -524 0
-527 904 0
-527 524 0
528 -773 -697 0
-528 773 0
-528 697 0
529 -528 -728 0
-529 528 0
-529 728 0
530 -905 -527 0
-530 905 0
-530 527 0
531 -737 -743 0
-531 737 0
-531 743 0
532 -531 -6 0
-532 531 0
-532 6 0
533 -906 -530 0
-533 906 0
-533 530 0
534 -749 -766 0
-534 749 0
-534 766 0
535 -534 -736 0
-535 534 0
-535 736 0
536 -907 -533 0
-536 907 0
-536 533 0
537 -749 -702 0
-537 749 0
-537 702 0
538 -537 -731 0
-538 537 0
-538 731 0
539 -908 -536 0
-539 908 0
-539 536 0
540 -28 -802 0
-540 28 0
-540 802 0
541 -540 -725 0
-541 540 0
-541 725 0
542 -909 -539 0
-542 909 0
-542 539 0
543 -734 -8 0
-543 734 0
-543 8 0
544 -543 -728 0
-544 543 0
-544 728 0
545 -910 -542 0
-545 910 0
-545 542 0
546 -24 -12 0
-546 24 0
-546 12 0
547 -546 -699 0
-547 546 0
-547 699 0
548 -911 -545 0
-548 911 0
-548 545 0
549 -45 -8 0
-549 45 0
-549 8 0
550 -549 -725 0
-550 549 0
-550 725 0
551 -912 -548 0
-551 912 0
-551 548 0
552 -374 -29 0
-552 374 0
-552 29 0
553 -913 -551 0
-553 913 0
-553 551 0
554 -718 -11 0
-554 718 0
-554 11 0
555 -554 -20 0
-555 554 0
-555 20 0
556 -914 -553 0
-556 914 0
-556 553 0
557 -43 -28 0
-557 43 0
-557 28 0
558 -557 -24 0
-558 557 0
-558 24 0
559 -915 -556 0
-559 915 0
-559 556 0
560 -22 -15 0
-560 22 0
-560 15 0
561 -560 -697 0
-561 560 0
-561 697 0
562 -916 -559 0
-562 916 0
-562 559 0
563 -22 -7 0
-563 22 0
-563 7 0
564 -563 -40 0
-564 563 0
-564 40 0
565 -917 -562 0
-565 917 0
-565 562 0
566 -50 -39 0
-566 50 0
-566 39 0
567 -566 -715 0
-567 566 0
-567 715 0
568 -918 -565 0
-568 918 0
-568 565 0
569 -46 -28 0
-569 46 0
-569 28 0
570 -569 -18 0
-570 569 0
-570 18 0
571 -919 -568 0
-571 919 0
-571 568 0
572 -783 -30 0
-572 783 0
-572 30 0
573 -572 -27 0
-573 572 0
-573 27 0
574 -920 -571 0
-574 920 0
-574 571 0
575 -42 -19 0
-575 42 0
-575 19 0
576 -575 -734 0
-576 575 0
-576 734 0
577 -921 -574 0
-577 921 0
-577 574 0
578 -200 -713 0
-578 200 0
-578 713 0
579 -922 -577 0
-579 922 0
-579 577 0
580 -718 -790 0
-580 718 0
-580 790 0
581 -580 -923 0
-581 580 0
-581 923 0
582 -924 -579 0
-582 924 0
-582 579 0
583 -28 -7 0
-583 28 0
-583 7 0
584 -583 -702 0
-584 583 0
-584 702 0
585 -925 -582 0
-585 925 0
-585 582 0
586 -926 -699 0
-586 926 0
-586 699 0
587 -586 -23 0
-587 586 0
-587 23 0
588 -927 -585 0
-588 927 0
-588 585 0
589 -728 -707 0
-589 728 0
-589 707 0
590 -589 -18 0
-590 589 0
-590 18 0
591 -928 -588 0
-591 928 0
-591 588 0
592 -759 -741 0
-592 759 0
-592 741 0
593 -592 -731 0
-593 592 0
-593 731 0
594 -929 -591 0
-594 929 0
-594 591 0
595 -3 -1 0
-595 3 0
-595 1 0
596 -595 -49 0
-596 595 0
-596 49 0
597 -930 -594 0
-597 930 0
-597 594 0
598 -42 -10 0
-598 42 0
-598 10 0
599 -598 -926 0
-599 598 0
-599 926 0
600 -931 -597 0
-600 931 0
-600 597 0
601 -29 -697 0
-601 29 0
-601 697 0
602 -601 -850 0
-602 601 0
-602 850 0
603 -932 -600 0
-603 932 0
-603 600 0
604 -724 -790 0
-604 724 0
-604 790 0
605 -604 -754 0
-605 604 0
-605 754 0
606 -933 -603 0
-606 933 0
-606 603 0
607 -28 -17 0
-607 28 0
-607 17 0
608 -607 -774 0
-608 607 0
-608 774 0
609 -934 -606 0
-609 934 0
-609 606 0
610 -801 -43 0
-610 801 0
-610 43 0
611 -610 -47 0
-611 610 0
-611 47 0
612 -935 -609 0
-612 935 0
-612 609 0
613 -736 -6 0
-613 736 0
-613 6 0
614 -613 -23 0
-614 613 0
-614 23 0
615 -936 -612 0
-615 936 0
-615 612 0
616 -761 -713 0
-616 761 0
-616 713 0
617 -616 -752 0
-617 616 0
-617 752 0
618 -937 -615 0
-618 937 0
-618 615 0
619 -763 -745 0
-619 763 0
-619 745 0
620 -619 -923 0
-620 619 0
-620 923 0
621 -938 -618 0
-621 938 0
-621 618 0
622 -24 -697 0
-622 24 0
-622 697 0
623 -622 -18 0
-623 622 0
-623 18 0
624 -939 -621 0
-624 939 0
-624 621 0
625 -48 -737 0
-625 48 0
-625 737 0
626 -625 -745 0
-626 625 0
-626 745 0
627 -940 -624 0
-627 940 0
-627 624 0
628 -537 -20 0
-628 537 0
-628 20 0
629 -941 -627 0
-629 941 0
-629 627 0
630 -42 -36 0
-630 42 0
-630 36 0
631 -630 -724 0
-631 630 0
-631 724 0
632 -942 -629 0
-632 942 0
-632 629 0
633 -386 -734 0
-633 386 0
-633 734 0
634 -943 -632 0
-634 943 0
-634 632 0
635 -48 -34 0
-635 48 0
-635 34 0
636 -635 -49 0
-636 635 0
-636 49 0
637 -944 -634 0
-637 944 0
-637 634 0
638 -794 -32 0
-638 794 0
-638 32 0
639 -638 -724 0
-639 638 0
-639 724 0
640 -945 -637 0
-640 945 0
-640 637 0
641 -747 -736 0
-641 747 0
-641 736 0
642 -641 -23 0
-642 641 0
-642 23 0
643 -946 -640 0
-643 946 0
-643 640 0
644 -737 -757 0
-644 737 0
-644 757 0
645 -644 -773 0
-645 644 0
-645 773 0
646 -947 -643 0
-646 947 0
-646 643 0
647 -50 -17 0
-647 50 0
-647 17 0
648 -647 -33 0
-648 647 0
-648 33 0
649 -948 -646 0
-649 948 0
-649 646 0
650 -36 -22 0
-650 36 0
-650 22 0
651 -650 -791 0
-651 650 0
-651 791 0
652 -949 -649 0
-652 949 0
-652 649 0
653 -47 -7 0
-653 47 0
-653 7 0
654 -653 -734 0
-654 653 0
-654 734 0
655 -950 -652 0
-655 950 0
-655 652 0
656 -50 -38 0
-656 50 0
-656 38 0
657 -656 -44 0
-657 656 0
-657 44 0
658 -951 -655 0
-658 951 0
-658 655 0
659 -749 -926 0
-659 749 0
-659 926 0
660 -659 -850 0
-660 659 0
-660 850 0
661 -952 -658 0
-661 952 0
-661 658 0
662 -747 -734 0
-662 747 0
-662 734 0
663 -662 -25 0
-663 662 0
-663 25 0
664 -953 -661 0
-664 953 0
-664 661 0
665 -13 -2 0
-665 13 0
-665 2 0
666 -665 -923 0
-666 665 0
-666 923 0
667 -954 -664 0
-667 954 0
-667 664 0
668 -801 -774 0
-668 801 0
-668 774 0
669 -668 -734 0
-669 668 0
-669 734 0
670 -955 -667 0
-670 955 0
-670 667 0
671 -737 -5 0
-671 737 0
-671 5 0
672 -671 -736 0
-672 671 0
-672 736 0
673 -956 -670 0
-673 956 0
-673 670 0
674 -757 -7 0
-674 757 0
-674 7 0
675 -674 -794 0
-675 674 0
-675 794 0
676 -957 -673 0
-676 957 0
-676 673 0
677 -763 -707 0
-677 763 0
-677 707 0
678 -677 -23 0
-678 677 0
-678 23 0
679 -958 -676 0
-679 958 0
-679 676 0
680 -42 -15 0
-680 42 0
-680 15 0
681 -680 -715 0
-681 680 0
-681 715 0
682 -959 -679 0
-682 959 0
-682 679 0
683 -35 -17 0
-683 35 0
-683 17 0
684 -683 -9 0
-684 683 0
-684 9 0
685 -960 -682 0
-685 960 0
-685 682 0
686 -759 -757 0
-686 759 0
-686 757 0
687 -686 -44 0
-687 686 0
-687 44 0
688 -961 -685 0
-688 961 0
-688 685 0
689 -21 -2 0
-689 21 0
-689 2 0
690 -689 -47 0
-690 689 0
-690 47 0
691 -962 -688 0
-691 962 0
-691 688 0
692 -15 -9 0
-692 15 0
-692 9 0
693 -692 -2 0
-693 692 0
-693 2 0
694 -963 -691 0
-694 963 0
-694 691 0
695 -254 -18 0
-695 254 0
-695 18 0
696 -964 -694 0
-696 964 0
-696 694 0
-697 -1 0
697 1 0
-698 -3 0
698 3 0
-699 -6 0
699 6 0
-700 -54 0
700 54 0
-701 -52 0
701 52 0
-702 -8 0
702 8 0
-703 -7 0
703 7 0
-704 -57 0
704 57 0
-705 -12 0
705 12 0
-706 -60 0
706 60 0
-707 -2 0
707 2 0
-708 -63 0
708 63 0
-709 -66 0
709 66 0
-710 -17 0
710 17 0
-711 -10 0
711 10 0
-712 -69 0
712 69 0
-713 -19 0
713 19 0
-714 -72 0
714 72 0
-715 -21 0
715 21 0
-716 -75 0
716 75 0
-717 -78 0
717 78 0
-718 -14 0
718 14 0
-719 -81 0
719 81 0
-720 -84 0
720 84 0
-721 -26 0
721 26 0
-722 -27 0
722 27 0
-723 -87 0
723 87 0
-724 -25 0
724 25 0
-725 -29 0
725 29 0
-726 -90 0
726 90 0
-727 -30 0
727 30 0
-728 -16 0
728 16 0
-729 -93 0
729 93 0
-730 -96 0
730 96 0
-731 -31 0
731 31 0
-732 -99 0
732 99 0
-733 -102 0
733 102 0
-734 -34 0
734 34 0
-735 -105 0
735 105 0
-736 -36 0
736 36 0
-737 -35 0
737 35 0
-738 -108 0
738 108 0
-739 -33 0
739 33 0
-740 -111 0
740 111 0
-741 -4 0
741 4 0
-742 -114 0
742 114 0
-743 -24 0
743 24 0
-744 -15 0
744 15 0
-745 -40 0
745 40 0
-746 -117 0
746 117 0
-747 -41 0
747 41 0
-748 -120 0
748 120 0
-749 -42 0
749 42 0
-750 -123 0
750 123 0
-751 -126 0
751 126 0
-752 -23 0
752 23 0
-753 -5 0
753 5 0
-754 -44 0
754 44 0
-755 -129 0
755 129 0
-756 -132 0
756 132 0
-757 -22 0
757 22 0
-758 -135 0
758 135 0
-759 -43 0
759 43 0
-760 -138 0
760 138 0
-761 -38 0
761 38 0
-762 -141 0
762 141 0
-763 -45 0
763 45 0
-764 -144 0
764 144 0
-765 -147 0
765 147 0
-766 -39 0
766 39 0
-767 -150 0
767 150 0
-768 -153 0
768 153 0
-769 -156 0
769 156 0
-770 -159 0
770 159 0
-771 -162 0
771 162 0
-772 -165 0
772 165 0
-773 -11 0
773 11 0
-774 -13 0
774 13 0
-775 -168 0
775 168 0
-776 -171 0
776 171 0
-777 -174 0
777 174 0
-778 -177 0
778 177 0
-779 -180 0
779 180 0
-780 -183 0
780 183 0
-781 -186 0
781 186 0
-782 -32 0
782 32 0
-783 -46 0
783 46 0
-784 -189 0
784 189 0
-785 -192 0
785 192 0
-786 -195 0
786 195 0
-787 -198 0
787 198 0
-788 -201 0
788 201 0
-789 -204 0
789 204 0
-790 -9 0
790 9 0
-791 -47 0
791 47 0
-792 -207 0
792 207 0
-793 -210 0
793 210 0
-794 -49 0
794 49 0
-795 -213 0
795 213 0
-796 -216 0
796 216 0
-797 -219 0
797 219 0
-798 -222 0
798 222 0
-799 -225 0
799 225 0
-800 -228 0
800 228 0
-801 -48 0
801 48 0
-802 -18 0
802 18 0
-803 -231 0
803 231 0
-804 -234 0
804 234 0
-805 -237 0
805 237 0
-806 -240 0
806 240 0
-807 -243 0
807 243 0
-808 -246 0
808 246 0
-809 -249 0
809 249 0
-810 -252 0
810 252 0
-811 -255 0
811 255 0
-812 -258 0
812 258 0
-813 -50 0
813 50 0
-814 -261 0
814 261 0
-815 -264 0
815 264 0
-816 -267 0
816 267 0
-817 -270 0
817 270 0
-818 -273 0
818 273 0
-819 -276 0
819 276 0
-820 -279 0
820 279 0
-821 -282 0
821 282 0
-822 -285 0
822 285 0
-823 -288 0
823 288 0
-824 -291 0
824 291 0
-825 -294 0
825 294 0
-826 -297 0
826 297 0
-827 -300 0
827 300 0
-828 -303 0
828 303 0
-829 -306 0
829 306 0
-830 -309 0
830 309 0
-831 -312 0
831 312 0
-832 -315 0
832 315 0
-833 -318 0
833 318 0
-834 -321 0
834 321 0
-835 -324 0
835 324 0
-836 -327 0
836 327 0
-837 -330 0
837 330 0
-838 -333 0
838 333 0
-839 -336 0
839 336 0
-840 -339 0
840 339 0
-841 -342 0
841 342 0
-842 -345 0
842 345 0
-843 -348 0
843 348 0
-844 -351 0
844 351 0
-845 -354 0
845 354 0
-846 -357 0
846 357 0
-847 -360 0
847 360 0
-848 -363 0
848 363 0
-849 -366 0
849 366 0
-850 -20 0
850 20 0
-851 -369 0
851 369 0
-852 -372 0
852 372 0
-853 -375 0
853 375 0
-854 -378 0
854 378 0
-855 -381 0
855 381 0
-856 -384 0
856 384 0
-857 -387 0
857 387 0
-858 -390 0
858 390 0
-859 -393 0
859 393 0
-860 -396 0
860 396 0
-861 -399 0
861 399 0
-862 -402 0
862 402 0
-863 -405 0
863 405 0
-864 -408 0
864 408 0
-865 -411 0
865 411 0
-866 -414 0
866 414 0
-867 -417 0
867 417 0
-868 -420 0
868 420 0
-869 -423 0
869 423 0
-870 -426 0
870 426 0
-871 -429 0
871 429 0
-872 -432 0
872 432 0
-873 -435 0
873 435 0
-874 -438 0
874 438 0
-875 -440 0
875 440 0
-876 -443 0
876 443 0
-877 -445 0
877 445 0
-878 -448 0
878 448 0
-879 -451 0
879 451 0
-880 -454 0
880 454 0
-881 -457 0
881 457 0
-882 -460 0
882 460 0
-883 -463 0
883 463 0
-884 -466 0
884 466 0
-885 -469 0
885 469 0
-886 -472 0
886 472 0
-887 -475 0
887 475 0
-888 -478 0
888 478 0
-889 -481 0
889 481 0
-890 -484 0
890 484 0
-891 -487 0
891 487 0
-892 -490 0
892 490 0
-893 -493 0
893 493 0
-894 -496 0
894 496 0
-895 -499 0
895 499 0
-896 -502 0
896 502 0
-897 -505 0
897 505 0
-898 -508 0
898 508 0
-899 -511 0
899 511 0
-900 -514 0
900 514 0
-901 -517 0
901 517 0
-902 -520 0
902 520 0
-903 -523 0
903 523 0
-904 -526 0
904 526 0
-905 -529 0
905 529 0
-906 -532 0
906 532 0
-907 -535 0
907 535 0
-908 -538 0
908 538 0
-909 -541 0
909 541 0
-910 -544 0
910 544 0
-911 -547 0
911 547 0
-912 -550 0
912 550 0
-913 -552 0
913 552 0
-914 -555 0
914 555 0
-915 -558 0
915 558 0
-916 -561 0
916 561 0
-917 -564 0
917 564 0
-918 -567 0
918 567 0
-919 -570 0
919 570 0
-920 -573 0
920 573 0
-921 -576 0
921 576 0
-922 -578 0
922 578 0
-923 -37 0
923 37 0
-924 -581 0
924 581 0
-925 -584 0
925 584 0
-926 -28 0
926 28 0
-927 -587 0
927 587 0
-928 -590 0
928 590 0
-929 -593 0
929 593 0
-930 -596 0
930 596 0
-931 -599 0
931 599 0
-932 -602 0
932 602 0
-933 -605 0
933 605 0
-934 -608 0
934 608 0
-935 -611 0
935 611 0
-936 -614 0
936 614 0
-937 -617 0
937 617 0
-938 -620 0
938 620 0
-939 -623 0
939 623 0
-940 -626 0
940 626 0
-941 -628 0
941 628 0
-942 -631 0
942 631 0
-943 -633 0
943 633 0
-944 -636 0
944 636 0
-945 -639 0
945 639 0
-946 -642 0
946 642 0
-947 -645 0
947 645 0
-948 -648 0
948 648 0
-949 -651 0
949 651 0
-950 -654 0
950 654 0
-951 -657 0
951 657 0
-952 -660 0
952 660 0
-953 -663 0
953 663 0
-954 -666 0
954 666 0
-955 -669 0
955 669 0
-956 -672 0
956 672 0
-957 -675 0
957 675 0
-958 -678 0
958 678 0
-959 -681 0
959 681 0
-960 -684 0
960 684 0
-961 -687 0
961 687 0
-962 -690 0
962 690 0
-963 -693 0
963 693 0
-964 -695 0
964 695 0
696 0
